\ LP format - for model browsing. Use MPS format to capture full model detail.
Maximize
obj:   x[1] + x[12] + x[37] + x[42] + x[53] + x[56] + x[67] + x[87] + x[95]
   + x[106] + x[108] + x[109] + x[118] + x[2] + x[3] + x[13] + x[15]
   + x[20] + x[55] + x[66] + x[75] + x[90] + x[120] + x[16] + x[22] + x[31]
   + x[34] + x[35] + x[57] + x[65] + x[80] + x[83] + x[89] + x[94] + x[115]
   + x[117] + x[4] + x[25] + x[48] + x[68] + x[69] + x[76] + x[77] + x[85]
   + x[93] + x[5] + x[23] + x[27] + x[28] + x[33] + x[38] + x[74] + x[84]
   + x[97] + x[6] + x[14] + x[70] + x[78] + x[104] + x[105] + x[114]
   + x[125] + x[7] + x[30] + x[58] + x[81] + x[86] + x[8] + x[40] + x[44]
   + x[110] + x[113] + x[121] + x[9] + x[26] + x[32] + x[46] + x[64]
   + x[88] + x[116] + x[124] + x[10] + x[29] + x[54] + x[71] + x[11]
   + x[51] + x[59] + x[112] + x[43] + x[92] + x[102] + x[63] + x[73]
   + x[79] + x[96] + x[119] + x[21] + x[72] + x[101] + x[103] + x[17]
   + x[50] + x[60] + x[111] + x[18] + x[52] + x[62] + x[19] + x[61] + x[91]
   + x[100] + x[107] + x[24] + x[41] + x[98] + x[82] + x[36] + x[122]
   + x[99] + x[39] + x[49] + x[123] + x[45] + x[47]
Subject To
 clq1: x[83] + x[4] + x[76] <= 1
 clq2: x[75] + x[90] + x[97] + x[36] <= 1
 clq3: x[108] + x[14] + x[73] <= 1
 clq4: x[42] + x[83] + x[113] <= 1
 clq5: x[108] + x[3] + x[94] + x[115] <= 1
 clq6: x[51] + x[73] + x[36] <= 1
 clq7: x[95] + x[51] + x[63] <= 1
 clq8: x[15] + x[75] + x[32] <= 1
 clq9: x[16] + x[89] + x[76] <= 1
 clq10: x[55] + x[83] + x[100] <= 1
 clq11: x[64] + x[88] + x[17] <= 1
 clq12: x[33] + x[71] + x[36] <= 1
 clq13: x[12] + x[68] + x[88] <= 1
 clq14: x[42] + x[81] + x[51] <= 1
 clq15: x[95] + x[73] + x[122] <= 1
 clq16: x[108] + x[5] + x[28] + x[38] <= 1
 clq17: x[15] + x[94] + x[96] <= 1
 clq18: x[90] + x[93] + x[116] <= 1
 clq19: x[16] + x[72] + x[103] <= 1
 clq20: x[3] + x[83] <= 1
 clq21: x[76] + x[50] <= 1
 clq22: x[113] + x[64] <= 1
 clq23: x[75] + x[76] + x[72] <= 1
 clq24: x[106] + x[83] + x[103] <= 1
 clq25: x[97] + x[116] + x[17] <= 1
 clq26: x[78] + x[105] + x[36] <= 1
 clq27: x[68] + x[30] + x[113] <= 1
 clq28: x[64] + x[100] <= 1
 clq29: x[16] + x[40] + x[112] <= 1
 clq30: x[23] + x[102] + x[50] <= 1
 clq31: x[66] + x[21] <= 1
 clq32: x[12] + x[89] + x[33] <= 1
 clq33: x[42] + x[61] <= 1
 clq34: x[56] + x[2] + x[3] <= 1
 clq35: x[87] + x[81] + x[124] <= 1
 clq36: x[37] + x[95] + x[26] + x[98] <= 1
 clq37: x[15] + x[38] + x[51] <= 1
 clq38: x[90] + x[73] <= 1
 clq39: x[120] + x[86] + x[88] <= 1
 clq40: x[93] + x[14] + x[64] <= 1
 clq41: x[110] + x[102] + x[21] <= 1
 clq42: x[42] + x[107] <= 1
 clq43: x[53] + x[76] + x[29] <= 1
 clq44: x[108] + x[75] + x[79] <= 1
 clq45: x[20] + x[100] <= 1
 clq46: x[55] + x[74] + x[63] <= 1
 clq47: x[90] + x[105] + x[58] + x[122] <= 1
 clq48: x[83] + x[61] + x[47] <= 1
 clq49: x[94] + x[97] + x[82] <= 1
 clq50: x[93] + x[27] + x[50] <= 1
 clq51: x[84] + x[70] + x[107] <= 1
 clq52: x[13] + x[78] + x[121] <= 1
 clq53: x[113] + x[43] <= 1
 clq54: x[112] + x[62] <= 1
 clq55: x[100] + x[36] <= 1
 clq56: x[1] + x[42] <= 1
 clq57: x[12] + x[43] + x[92] <= 1
 clq58: x[56] + x[66] <= 1
 clq59: x[87] + x[103] <= 1
 clq60: x[109] + x[85] + x[36] <= 1
 clq61: x[118] + x[116] <= 1
 clq62: x[15] + x[71] <= 1
 clq63: x[20] + x[35] + x[94] <= 1
 clq64: x[120] + x[68] + x[32] <= 1
 clq65: x[53] + x[16] + x[44] <= 1
 clq66: x[31] + x[73] <= 1
 clq67: x[57] + x[27] + x[21] <= 1
 clq68: x[117] + x[113] <= 1
 clq69: x[69] + x[23] + x[100] <= 1
 clq70: x[33] + x[17] <= 1
 clq71: x[75] + x[81] + x[112] <= 1
 clq72: x[9] + x[64] <= 1
 clq73: x[88] + x[62] <= 1
 clq74: x[33] + x[124] + x[107] <= 1
 clq75: x[113] + x[91] + x[123] <= 1
 clq76: x[1] + x[56] + x[106] <= 1
 clq77: x[42] + x[3] + x[34] <= 1
 clq78: x[87] + x[14] <= 1
 clq79: x[95] + x[66] + x[61] <= 1
 clq80: x[108] + x[41] <= 1
 clq81: x[118] + x[117] + x[97] <= 1
 clq82: x[15] + x[6] <= 1
 clq83: x[95] + x[55] + x[48] <= 1
 clq84: x[31] + x[76] + x[28] <= 1
 clq85: x[83] + x[46] <= 1
 clq86: x[89] + x[50] + x[82] <= 1
 clq87: x[25] + x[78] + x[21] <= 1
 clq88: x[84] + x[64] <= 1
 clq89: x[121] + x[88] <= 1
 clq90: x[116] + x[52] + x[61] <= 1
 clq91: x[75] + x[71] + x[103] <= 1
 clq92: x[120] + x[51] + x[102] <= 1
 clq93: x[90] + x[77] + x[63] <= 1
 clq94: x[68] + x[73] <= 1
 clq95: x[43] + x[119] <= 1
 clq96: x[83] + x[17] <= 1
 clq97: x[117] + x[32] + x[62] <= 1
 clq98: x[12] + x[9] <= 1
 clq99: x[37] + x[41] <= 1
 clq100: x[87] + x[88] + x[116] <= 1
 clq101: x[108] + x[13] <= 1
 clq102: x[109] + x[44] <= 1
 clq103: x[15] + x[79] <= 1
 clq104: x[20] + x[10] <= 1
 clq105: x[16] + x[25] + x[64] <= 1
 clq106: x[22] + x[31] + x[4] <= 1
 clq107: x[35] + x[14] <= 1
 clq108: x[3] + x[57] <= 1
 clq109: x[65] + x[6] <= 1
 clq110: x[69] + x[121] <= 1
 clq111: x[38] + x[105] + x[112] <= 1
 clq112: x[53] + x[84] + x[81] <= 1
 clq113: x[97] + x[26] + x[52] <= 1
 clq114: x[42] + x[46] <= 1
 clq115: x[9] + x[124] <= 1
 clq116: x[59] + x[73] <= 1
 clq117: x[117] + x[76] + x[119] <= 1
 clq118: x[68] + x[17] <= 1
 clq119: x[91] + x[36] <= 1
 clq120: x[1] + x[37] <= 1
 clq121: x[12] + x[102] <= 1
 clq122: x[56] + x[36] <= 1
 clq123: x[106] + x[122] + x[39] <= 1
 clq124: x[108] + x[33] <= 1
 clq125: x[109] + x[48] + x[103] <= 1
 clq126: x[118] + x[100] <= 1
 clq127: x[2] + x[66] + x[90] <= 1
 clq128: x[13] + x[65] <= 1
 clq129: x[15] + x[57] <= 1
 clq130: x[20] + x[5] + x[74] <= 1
 clq131: x[55] + x[116] + x[41] <= 1
 clq132: x[35] + x[79] + x[61] <= 1
 clq133: x[83] + x[69] <= 1
 clq134: x[89] + x[14] <= 1
 clq135: x[94] + x[33] <= 1
 clq136: x[115] + x[96] + x[119] <= 1
 clq137: x[85] + x[124] <= 1
 clq138: x[23] + x[107] <= 1
 clq139: x[27] + x[44] <= 1
 clq140: x[28] + x[72] <= 1
 clq141: x[6] + x[78] <= 1
 clq142: x[30] + x[71] + x[21] <= 1
 clq143: x[58] + x[50] + x[107] <= 1
 clq144: x[117] + x[86] + x[73] <= 1
 clq145: x[113] + x[18] <= 1
 clq146: x[121] + x[10] <= 1
 clq147: x[38] + x[46] + x[99] <= 1
 clq148: x[69] + x[51] + x[103] <= 1
 clq149: x[65] + x[59] <= 1
 clq150: x[43] + x[17] <= 1
 clq151: x[102] + x[63] <= 1
 clq152: x[97] + x[62] + x[24] <= 1
 clq153: x[83] + x[91] + x[24] <= 1
 clq154: x[1] + x[67] + x[87] <= 1
 clq155: x[12] + x[78] <= 1
 clq156: x[37] + x[43] <= 1
 clq157: x[42] + x[14] + x[63] <= 1
 clq158: x[56] + x[44] <= 1
 clq159: x[108] + x[9] + x[32] <= 1
 clq160: x[118] + x[34] + x[10] <= 1
 clq161: x[3] + x[16] + x[80] <= 1
 clq162: x[13] + x[84] <= 1
 clq163: x[15] + x[124] + x[11] <= 1
 clq164: x[120] + x[77] <= 1
 clq165: x[22] + x[5] + x[23] <= 1
 clq166: x[57] + x[49] <= 1
 clq167: x[89] + x[68] <= 1
 clq168: x[94] + x[123] <= 1
 clq169: x[4] + x[69] + x[85] <= 1
 clq170: x[93] + x[43] + x[73] <= 1
 clq171: x[27] + x[18] + x[62] <= 1
 clq172: x[85] + x[28] + x[112] <= 1
 clq173: x[6] + x[104] + x[105] <= 1
 clq174: x[125] + x[100] <= 1
 clq175: x[81] + x[36] <= 1
 clq176: x[56] + x[113] + x[26] <= 1
 clq177: x[65] + x[121] + x[43] <= 1
 clq178: x[115] + x[64] <= 1
 clq179: x[88] + x[92] <= 1
 clq180: x[59] + x[100] + x[49] <= 1
 clq181: x[102] + x[17] <= 1
 clq182: x[12] + x[8] <= 1
 clq183: x[37] + x[75] + x[40] <= 1
 clq184: x[53] + x[2] + x[55] <= 1
 clq185: x[95] + x[125] <= 1
 clq186: x[106] + x[68] <= 1
 clq187: x[109] + x[96] <= 1
 clq188: x[13] + x[88] + x[71] <= 1
 clq189: x[20] + x[70] <= 1
 clq190: x[66] + x[74] <= 1
 clq191: x[120] + x[35] <= 1
 clq192: x[3] + x[31] + x[89] <= 1
 clq193: x[57] + x[44] <= 1
 clq194: x[67] + x[94] <= 1
 clq195: x[35] + x[25] <= 1
 clq196: x[48] + x[51] <= 1
 clq197: x[76] + x[39] <= 1
 clq198: x[77] + x[33] <= 1
 clq199: x[84] + x[47] <= 1
 clq200: x[78] + x[7] <= 1
 clq201: x[30] + x[17] + x[50] <= 1
 clq202: x[34] + x[58] <= 1
 clq203: x[68] + x[81] <= 1
 clq204: x[86] + x[123] <= 1
 clq205: x[46] + x[52] <= 1
 clq206: x[86] + x[64] <= 1
 clq207: x[66] + x[97] + x[92] <= 1
 clq208: x[79] + x[50] + x[36] <= 1
 clq209: x[72] + x[101] <= 1
 clq210: x[106] + x[19] <= 1
 clq211: x[33] + x[91] <= 1
 clq212: x[102] + x[41] <= 1
 clq213: x[1] + x[108] <= 1
 clq214: x[12] + x[76] <= 1
 clq215: x[42] + x[82] <= 1
 clq216: x[87] + x[93] <= 1
 clq217: x[95] + x[10] <= 1
 clq218: x[109] + x[15] <= 1
 clq219: x[118] + x[57] <= 1
 clq220: x[20] + x[113] + x[19] <= 1
 clq221: x[90] + x[44] <= 1
 clq222: x[120] + x[91] <= 1
 clq223: x[16] + x[101] <= 1
 clq224: x[106] + x[22] + x[121] <= 1
 clq225: x[83] + x[6] + x[125] <= 1
 clq226: x[94] + x[70] <= 1
 clq227: x[115] + x[63] <= 1
 clq228: x[4] + x[77] <= 1
 clq229: x[25] + x[38] <= 1
 clq230: x[48] + x[52] <= 1
 clq231: x[23] + x[70] + x[41] <= 1
 clq232: x[27] + x[74] <= 1
 clq233: x[28] + x[14] <= 1
 clq234: x[84] + x[122] <= 1
 clq235: x[78] + x[112] <= 1
 clq236: x[105] + x[46] <= 1
 clq237: x[7] + x[81] <= 1
 clq238: x[58] + x[8] <= 1
 clq239: x[9] + x[26] <= 1
 clq240: x[32] + x[51] <= 1
 clq241: x[34] + x[64] <= 1
 clq242: x[67] + x[124] <= 1
 clq243: x[29] + x[73] <= 1
 clq244: x[11] + x[59] <= 1
 clq245: x[96] + x[100] <= 1
 clq246: x[44] + x[119] <= 1
 clq247: x[38] + x[21] <= 1
 clq248: x[72] + x[123] <= 1
 clq249: x[111] + x[45] <= 1
 clq250: x[65] + x[18] <= 1
 clq251: x[77] + x[39] <= 1
 clq252: x[82] + x[99] + x[47] <= 1
 clq253: x[1] + x[12] <= 1
 clq254: x[37] + x[103] <= 1
 clq255: x[42] + x[17] <= 1
 clq256: x[53] + x[57] <= 1
 clq257: x[56] + x[84] + x[39] <= 1
 clq258: x[87] + x[49] <= 1
 clq259: x[95] + x[5] <= 1
 clq260: x[108] + x[7] + x[58] <= 1
 clq261: x[1] + x[109] + x[118] <= 1
 clq262: x[2] + x[75] <= 1
 clq263: x[13] + x[102] <= 1
 clq264: x[15] + x[119] <= 1
 clq265: x[55] + x[81] <= 1
 clq266: x[90] + x[35] <= 1
 clq267: x[120] + x[24] <= 1
 clq268: x[16] + x[68] <= 1
 clq269: x[31] + x[111] <= 1
 clq270: x[80] + x[76] <= 1
 clq271: x[89] + x[112] <= 1
 clq272: x[94] + x[45] <= 1
 clq273: x[115] + x[33] <= 1
 clq274: x[4] + x[48] <= 1
 clq275: x[25] + x[28] <= 1
 clq276: x[93] + x[62] <= 1
 clq277: x[27] + x[116] <= 1
 clq278: x[74] + x[9] <= 1
 clq279: x[14] + x[71] <= 1
 clq280: x[78] + x[29] <= 1
 clq281: x[68] + x[105] <= 1
 clq282: x[114] + x[64] <= 1
 clq283: x[30] + x[18] <= 1
 clq284: x[86] + x[11] <= 1
 clq285: x[8] + x[110] <= 1
 clq286: x[26] + x[72] <= 1
 clq287: x[32] + x[63] <= 1
 clq288: x[9] + x[46] <= 1
 clq289: x[88] + x[36] <= 1
 clq290: x[124] + x[41] <= 1
 clq291: x[10] + x[54] <= 1
 clq292: x[74] + x[51] <= 1
 clq293: x[59] + x[98] <= 1
 clq294: x[92] + x[52] <= 1
 clq295: x[73] + x[79] <= 1
 clq296: x[96] + x[101] <= 1
 clq297: x[16] + x[21] <= 1
 clq298: x[60] + x[98] <= 1
 clq299: x[61] + x[36] <= 1
 clq300: x[20] + x[91] <= 1
 clq301: x[67] + x[107] <= 1
 clq302: x[72] + x[122] <= 1
 clq303: x[66] + x[123] <= 1
 clq304: x[12] + x[114] <= 1
 clq305: x[37] + x[110] <= 1
 clq306: x[42] + x[25] <= 1
 clq307: x[53] + x[122] <= 1
 clq308: x[87] + x[55] <= 1
 clq309: x[95] + x[119] <= 1
 clq310: x[2] + x[13] <= 1
 clq311: x[3] + x[65] <= 1
 clq312: x[15] + x[77] <= 1
 clq313: x[75] + x[113] <= 1
 clq314: x[90] + x[91] <= 1
 clq315: x[120] + x[92] <= 1
 clq316: x[22] + x[61] <= 1
 clq317: x[31] + x[27] <= 1
 clq318: x[34] + x[4] <= 1
 clq319: x[35] + x[81] <= 1
 clq320: x[57] + x[18] <= 1
 clq321: x[80] + x[64] <= 1
 clq322: x[83] + x[10] <= 1
 clq323: x[89] + x[121] <= 1
 clq324: x[94] + x[69] <= 1
 clq325: x[66] + x[115] <= 1
 clq326: x[48] + x[28] <= 1
 clq327: x[76] + x[45] <= 1
 clq328: x[85] + x[21] <= 1
 clq329: x[4] + x[93] <= 1
 clq330: x[5] + x[33] <= 1
 clq331: x[23] + x[32] <= 1
 clq332: x[38] + x[104] <= 1
 clq333: x[6] + x[14] <= 1
 clq334: x[78] + x[24] <= 1
 clq335: x[105] + x[49] <= 1
 clq336: x[125] + x[51] <= 1
 clq337: x[30] + x[44] <= 1
 clq338: x[33] + x[86] <= 1
 clq339: x[8] + x[40] <= 1
 clq340: x[26] + x[11] <= 1
 clq341: x[46] + x[29] <= 1
 clq342: x[88] + x[63] <= 1
 clq343: x[116] + x[123] <= 1
 clq344: x[124] + x[19] <= 1
 clq345: x[30] + x[54] <= 1
 clq346: x[71] + x[100] <= 1
 clq347: x[59] + x[107] <= 1
 clq348: x[112] + x[101] <= 1
 clq349: x[102] + x[18] + x[52] <= 1
 clq350: x[26] + x[79] <= 1
 clq351: x[89] + x[96] <= 1
 clq352: x[103] + x[47] <= 1
 clq353: x[17] + x[111] <= 1
 clq354: x[17] + x[60] <= 1
 clq355: x[34] + x[62] <= 1
 clq356: x[12] + x[84] <= 1
 clq357: x[37] + x[22] <= 1
 clq358: x[42] + x[122] <= 1
 clq359: x[53] + x[91] <= 1
 clq360: x[56] + x[93] <= 1
 clq361: x[67] + x[115] <= 1
 clq362: x[87] + x[92] <= 1
 clq363: x[95] + x[99] <= 1
 clq364: x[106] + x[94] <= 1
 clq365: x[108] + x[20] <= 1
 clq366: x[109] + x[49] <= 1
 clq367: x[118] + x[75] <= 1
 clq368: x[2] + x[15] <= 1
 clq369: x[3] + x[35] <= 1
 clq370: x[13] + x[124] <= 1
 clq371: x[55] + x[120] <= 1
 clq372: x[90] + x[110] <= 1
 clq373: x[16] + x[74] <= 1
 clq374: x[31] + x[6] <= 1
 clq375: x[57] + x[103] <= 1
 clq376: x[65] + x[81] <= 1
 clq377: x[80] + x[58] <= 1
 clq378: x[83] + x[19] <= 1
 clq379: x[117] + x[105] <= 1
 clq380: x[25] + x[63] <= 1
 clq381: x[57] + x[48] <= 1
 clq382: x[68] + x[78] <= 1
 clq383: x[69] + x[9] + x[116] <= 1
 clq384: x[76] + x[38] <= 1
 clq385: x[77] + x[107] <= 1
 clq386: x[85] + x[64] <= 1
 clq387: x[5] + x[97] <= 1
 clq388: x[25] + x[23] <= 1
 clq389: x[27] + x[125] <= 1
 clq390: x[28] + x[96] <= 1
 clq391: x[14] + x[7] <= 1
 clq392: x[70] + x[43] <= 1
 clq393: x[104] + x[101] <= 1
 clq394: x[114] + x[24] <= 1
 clq395: x[86] + x[21] <= 1
 clq396: x[8] + x[113] <= 1
 clq397: x[40] + x[73] <= 1
 clq398: x[97] + x[44] <= 1
 clq399: x[121] + x[46] <= 1
 clq400: x[32] + x[82] <= 1
 clq401: x[88] + x[50] <= 1
 clq402: x[10] + x[29] <= 1
 clq403: x[54] + x[119] <= 1
 clq404: x[10] + x[71] <= 1
 clq405: x[11] + x[51] <= 1
 clq406: x[59] + x[39] <= 1
 clq407: x[112] + x[45] <= 1
 clq408: x[28] + x[79] <= 1
 clq409: x[65] + x[72] <= 1
 clq410: x[60] + x[36] <= 1
 clq411: x[111] + x[41] <= 1
 clq412: x[62] + x[47] <= 1
 clq413: x[19] + x[61] <= 1
 clq414: x[66] + x[100] <= 1
 clq415: x[98] + x[123] <= 1
 clq416: x[1] + x[53] <= 1
 clq417: x[12] + x[15] <= 1
 clq418: x[37] + x[88] <= 1
 clq419: x[42] + x[115] <= 1
 clq420: x[56] + x[17] <= 1
 clq421: x[67] + x[32] <= 1
 clq422: x[87] + x[31] <= 1
 clq423: x[95] + x[23] <= 1
 clq424: x[106] + x[29] <= 1
 clq425: x[108] + x[30] <= 1
 clq426: x[109] + x[99] <= 1
 clq427: x[118] + x[107] <= 1
 clq428: x[2] + x[20] <= 1
 clq429: x[3] + x[117] <= 1
 clq430: x[13] + x[14] <= 1
 clq431: x[55] + x[119] <= 1
 clq432: x[75] + x[34] <= 1
 clq433: x[90] + x[84] <= 1
 clq434: x[120] + x[61] <= 1
 clq435: x[16] + x[29] <= 1
 clq436: x[22] + x[91] <= 1
 clq437: x[35] + x[76] <= 1
 clq438: x[80] + x[92] <= 1
 clq439: x[83] + x[26] <= 1
 clq440: x[89] + x[51] <= 1
 clq441: x[94] + x[54] <= 1
 clq442: x[4] + x[68] <= 1
 clq443: x[37] + x[48] <= 1
 clq444: x[77] + x[105] <= 1
 clq445: x[85] + x[40] <= 1
 clq446: x[93] + x[45] <= 1
 clq447: x[5] + x[27] <= 1
 clq448: x[33] + x[10] <= 1
 clq449: x[38] + x[113] <= 1
 clq450: x[57] + x[74] <= 1
 clq451: x[6] + x[114] <= 1
 clq452: x[70] + x[112] <= 1
 clq453: x[90] + x[78] <= 1
 clq454: x[104] + x[18] <= 1
 clq455: x[125] + x[41] <= 1
 clq456: x[7] + x[86] <= 1
 clq457: x[58] + x[98] <= 1
 clq458: x[114] + x[81] <= 1
 clq459: x[8] + x[121] <= 1
 clq460: x[44] + x[124] <= 1
 clq461: x[110] + x[64] <= 1
 clq462: x[46] + x[50] <= 1
 clq463: x[71] + x[43] <= 1
 clq464: x[97] + x[11] <= 1
 clq465: x[59] + x[122] <= 1
 clq466: x[102] + x[123] <= 1
 clq467: x[63] + x[101] <= 1
 clq468: x[73] + x[82] <= 1
 clq469: x[118] + x[79] <= 1
 clq470: x[73] + x[96] <= 1
 clq471: x[21] + x[62] <= 1
 clq472: x[72] + x[52] <= 1
 clq473: x[103] + x[36] <= 1
 clq474: x[60] + x[19] <= 1
 clq475: x[111] + x[24] <= 1
 clq476: x[100] + x[47] <= 1
 clq477: x[82] + x[39] <= 1
 clq478: x[41] + x[49] <= 1
 clq479: x[1] + x[95] <= 1
 clq480: x[12] + x[104] <= 1
 clq481: x[42] + x[123] <= 1
 clq482: x[53] + x[121] <= 1
 clq483: x[56] + x[55] <= 1
 clq484: x[67] + x[15] <= 1
 clq485: x[87] + x[96] <= 1
 clq486: x[106] + x[14] <= 1
 clq487: x[108] + x[66] <= 1
 clq488: x[109] + x[93] <= 1
 clq489: x[2] + x[120] <= 1
 clq490: x[3] + x[22] <= 1
 clq491: x[13] + x[48] <= 1
 clq492: x[20] + x[107] <= 1
 clq493: x[75] + x[59] <= 1
 clq494: x[16] + x[23] <= 1
 clq495: x[31] + x[94] <= 1
 clq496: x[34] + x[32] <= 1
 clq497: x[35] + x[115] <= 1
 clq498: x[65] + x[111] <= 1
 clq499: x[80] + x[61] <= 1
 clq500: x[83] + x[86] <= 1
 clq501: x[89] + x[85] <= 1
 clq502: x[117] + x[39] <= 1
 clq503: x[4] + x[25] <= 1
 clq504: x[68] + x[62] <= 1
 clq505: x[69] + x[49] <= 1
 clq506: x[76] + x[110] <= 1
 clq507: x[77] + x[100] <= 1
 clq508: x[5] + x[84] <= 1
 clq509: x[27] + x[26] <= 1
 clq510: x[28] + x[64] <= 1
 clq511: x[33] + x[116] <= 1
 clq512: x[38] + x[98] <= 1
 clq513: x[74] + x[40] <= 1
 clq514: x[6] + x[70] <= 1
 clq515: x[78] + x[119] <= 1
 clq516: x[105] + x[103] <= 1
 clq517: x[125] + x[43] <= 1
 clq518: x[7] + x[30] <= 1
 clq519: x[58] + x[124] <= 1
 clq520: x[81] + x[45] <= 1
 clq521: x[8] + x[44] <= 1
 clq522: x[113] + x[51] <= 1
 clq523: x[9] + x[88] <= 1
 clq524: x[46] + x[47] <= 1
 clq525: x[54] + x[91] <= 1
 clq526: x[71] + x[52] <= 1
 clq527: x[11] + x[112] <= 1
 clq528: x[92] + x[60] <= 1
 clq529: x[102] + x[99] <= 1
 clq530: x[63] + x[79] <= 1
 clq531: x[21] + x[24] <= 1
 clq532: x[72] + x[17] <= 1
 clq533: x[101] + x[50] <= 1
 clq534: x[36] + x[122] <= 1
Bounds
Binaries
 x[1] x[12] x[37] x[42] x[53] x[56] x[67] x[87] x[95] x[106] x[108] x[109]
 x[118] x[2] x[3] x[13] x[15] x[20] x[55] x[66] x[75] x[90] x[120] x[16]
 x[22] x[31] x[34] x[35] x[57] x[65] x[80] x[83] x[89] x[94] x[115] x[117]
 x[4] x[25] x[48] x[68] x[69] x[76] x[77] x[85] x[93] x[5] x[23] x[27]
 x[28] x[33] x[38] x[74] x[84] x[97] x[6] x[14] x[70] x[78] x[104] x[105]
 x[114] x[125] x[7] x[30] x[58] x[81] x[86] x[8] x[40] x[44] x[110] x[113]
 x[121] x[9] x[26] x[32] x[46] x[64] x[88] x[116] x[124] x[10] x[29] x[54]
 x[71] x[11] x[51] x[59] x[112] x[43] x[92] x[102] x[63] x[73] x[79] x[96]
 x[119] x[21] x[72] x[101] x[103] x[17] x[50] x[60] x[111] x[18] x[52]
 x[62] x[19] x[61] x[91] x[100] x[107] x[24] x[41] x[98] x[82] x[36] x[122]
 x[99] x[39] x[49] x[123] x[45] x[47]
End
